&BANDS
  prefix='graphene',
  outdir='./',
  filband='graphene.dat'
/
