 &control
    calculation='bands',
    restart_mode = 'from_scratch',
    prefix= 'graphene',
    pseudo_dir = './'
    outdir = './'
    verbosity = 'high',
 /
 &system    
   !  ibrav=  4, 
   !  celldm(1)= 4.641, 
   !  celldm(3)= 3.0, 
    ibrav= 4,
    celldm(1)= 4.641, ! Twice that of the lattice const a found in week 3
    celldm(3)= 6.0,   ! Making 
    nat=  2, 
    ntyp= 1,
    occupations = 'smearing',
    smearing = 'gaussian',
    degauss = 0.01,
    ecutwfc = 60.0,
    ecutrho = 600.0,
 /
 &electrons
    mixing_mode = 'plain'
    mixing_beta = 0.7 
    conv_thr =  1.0d-8
 /

ATOMIC_SPECIES
  C  12.011  C.pbe-n-kjpaw_psl.1.0.0.UPF

! CELL_PARAMETERS angstrom
!     3.5000000000    0.0000000000    0.0000000000
!     0.0000000000    6.2800000000    0.0000000000
!     0.0000000000    0.0000000000   30.00000000

ATOMIC_POSITIONS (alat)
  C      0.000 0.000 0.5
  C      0.000 0.577 0.5
K_POINTS {crystal_b}
4
  0.500000  0.000000  0.000000  20 !M
  0.000000  0.000000  0.000000  20 !G
  0.333333  0.333333  0.000000  20 !K
  0.500000  0.000000  0.000000  20 !M

