&control
    calculation='bands',
    restart_mode = 'from_scratch',
    pseudo_dir = './',
    outdir = './',
    verbosity = 'high',
/
&system
    ibrav = 0,
    nat = 6,
    ntyp = 2,
    occupations = 'smearing',
    smearing = 'gaussian',
    degauss = 0.01,
    ecutwfc = 60.0,
    ecutrho = 600.0,
    lspinorb = .true.,
    noncolin = .true.,

/
&electrons
   electron_maxstep = 250
   mixing_beta = 0.9
   mixing_mode = 'local-TF'
   conv_thr = 1.0d-9,
/
ATOMIC_SPECIES
    Te     127.6  Te.rel-pbe-n-kjpaw_psl.1.0.0.UPF
    W      183.84 W.rel-pbe-spn-kjpaw_psl.1.0.0.UPF 
CELL_PARAMETERS angstrom
    3.5000000000    0.0000000000    0.0000000000
    0.0000000000    6.2800000000    0.0000000000
    0.0000000000    0.0000000000   30.00000000
ATOMIC_POSITIONS angstrom
W             0.0000000000        0.6348494461        7.0369956522
W             1.7500000000        2.8643989580        6.8253903446
Te            1.7500000000        5.3464571366        5.4513331499
Te            0.0000000000        4.4329517720        8.4125389807
Te            0.0000000000        2.2467505595        4.8257020775
Te            1.7500000000        1.2509841278        9.0361457950
K_POINTS {crystal_b}
5
   0.0000000000     0.0000000000     0.0000000000     20 !G
   0.5000000000     0.0000000000     0.0000000000     20 !x
   0.5000000000     0.5000000000     0.0000000000     20 !S
   0.0000000000     0.5000000000     0.0000000000     20 !Y
   0.0000000000     0.0000000000     0.0000000000     20 !G

