&control
    calculation = 'relax',
    restart_mode = 'from_scratch',
    pseudo_dir = './',
    outdir = './',
    verbosity = 'high',
/
&system
   ibrav = 0,
   nat = 140,
   ntyp = 3,
   occupations = 'smearing',
   smearing = 'gaussian',
   degauss = 0.001,
   ecutwfc = 60.0,
   ecutrho = 500.0,
   vdw_corr = 'DFT-D3',
/
&electrons
   mixing_beta = 0.9,
   mixing_mode = 'local-TF',
   conv_thr = 1.0d-9,
   electron_maxstep = 80,
/
&ions
   ion_velocities = 'default',
   ion_dynamics = 'bfgs',
/
ATOMIC_SPECIES
    C      12.0107  C.pbe-n-kjpaw_psl.1.0.0.UPF
    Te     127.6    Te.pbe-n-kjpaw_psl.1.0.0.UPF
    W      183.84   W.pbe-spn-kjpaw_psl.1.0.0.UPF
CELL_PARAMETERS angstrom
       12.430000305         0.0000000000         0.0000000000
        0.0000000000        17.271689415         0.0000000000
        0.0000000000         0.0000000000        30.0000000000
ATOMIC_POSITIONS {angstrom}
 W    0.628279    0.000000    7.036996
 W    0.628279    6.908676    7.036996
 W    0.628279   13.817353    7.036996
 W    0.628279    3.454338    7.036996
 W    6.843279    0.000000    7.036996
 W    6.843279    6.908676    7.036996
 W    6.843279   13.817353    7.036996
 W    6.843279    3.454338    7.036996
 W    0.628279   10.363015    7.036996
 W    6.843279   10.363015    7.036996
 W    9.049752    1.727169    6.825390
 W    9.049752    8.635845    6.825390
 W    9.049752   15.544521    6.825390
 W    9.049752    5.181507    6.825390
 W    2.834752    1.727169    6.825390
 W    2.834752    8.635845    6.825390
 W    2.834752   15.544521    6.825390
 W    2.834752    5.181507    6.825390
 W    2.834751   12.090183    6.825390
 W    9.049751   12.090183    6.825390
Te   11.506119    1.727169    5.451333
Te   11.506119    8.635845    5.451333
Te   11.506119   15.544521    5.451333
Te   11.506119    5.181507    5.451333
Te    5.291119    1.727169    5.451333
Te    5.291119    8.635845    5.451333
Te    5.291119   15.544521    5.451333
Te    5.291119    5.181507    5.451333
Te    5.291121   12.090183    5.451333
Te   11.506121   12.090183    5.451333
Te    4.387069    0.000000    8.412539
Te    4.387069    6.908676    8.412539
Te    4.387069   13.817353    8.412539
Te    4.387069    3.454338    8.412539
Te   10.602069    0.000000    8.412539
Te   10.602069    6.908676    8.412539
Te   10.602069   13.817353    8.412539
Te   10.602069    3.454338    8.412539
Te    4.387070   10.363015    8.412539
Te   10.602071   10.363015    8.412539
Te    2.223496    0.000000    4.825702
Te    2.223496    6.908676    4.825702
Te    2.223496   13.817353    4.825702
Te    2.223496    3.454338    4.825702
Te    8.438496    0.000000    4.825702
Te    8.438496    6.908676    4.825702
Te    8.438496   13.817353    4.825702
Te    8.438496    3.454338    4.825702
Te    2.223497   10.363015    4.825702
Te    8.438497   10.363015    4.825702
Te    7.453036    1.727169    9.036146
Te    7.453036    8.635845    9.036146
Te    7.453036   15.544522    9.036146
Te    7.453036    5.181507    9.036146
Te    1.238035    1.727169    9.036146
Te    1.238035    8.635845    9.036146
Te    1.238035   15.544522    9.036146
Te    1.238035    5.181507    9.036146
Te    1.238035   12.090183    9.036146
Te    7.453035   12.090183    9.036146
 C    0.000000    0.000000   11.500000
 C    0.000000    4.317923   11.500000
 C    0.000000    8.635845   11.500000
 C    0.000000   12.953768   11.500000
 C    2.486000    0.000000   11.500000
 C    2.486000    4.317923   11.500000
 C    2.486000    8.635845   11.500000
 C    2.486000   12.953768   11.500000
 C    4.972000    0.000000   11.500000
 C    4.972000    4.317923   11.500000
 C    4.972000    8.635845   11.500000
 C    4.972000   12.953768   11.500000
 C    7.458000    0.000000   11.500000
 C    7.458000    4.317923   11.500000
 C    7.458000    8.635845   11.500000
 C    7.458000   12.953768   11.500000
 C    9.944000    0.000000   11.500000
 C    9.944000    4.317923   11.500000
 C    9.944000    8.635845   11.500000
 C    9.944000   12.953768   11.500000
 C    0.000000    2.878615   11.500000
 C    0.000000    7.196538   11.500000
 C    0.000000   11.514461   11.500000
 C    0.000000   15.832383   11.500000
 C    2.486000    2.878615   11.500000
 C    2.486000    7.196538   11.500000
 C    2.486000   11.514461   11.500000
 C    2.486000   15.832383   11.500000
 C    4.972000    2.878615   11.500000
 C    4.972000    7.196538   11.500000
 C    4.972000   11.514461   11.500000
 C    4.972000   15.832383   11.500000
 C    7.458000    2.878615   11.500000
 C    7.458000    7.196538   11.500000
 C    7.458000   11.514461   11.500000
 C    7.458000   15.832383   11.500000
 C    9.944000    2.878615   11.500000
 C    9.944000    7.196538   11.500000
 C    9.944000   11.514461   11.500000
 C    9.944000   15.832383   11.500000
 C    1.243000    2.158961   11.500000
 C    1.243000    6.476884   11.500000
 C    1.243000   10.794806   11.500000
 C    1.243000   15.112729   11.500000
 C    3.729000    2.158961   11.500000
 C    3.729000    6.476884   11.500000
 C    3.729000   10.794806   11.500000
 C    3.729000   15.112729   11.500000
 C    6.215000    2.158961   11.500000
 C    6.215000    6.476884   11.500000
 C    6.215000   10.794806   11.500000
 C    6.215000   15.112729   11.500000
 C    8.701000    2.158961   11.500000
 C    8.701000    6.476884   11.500000
 C    8.701000   10.794806   11.500000
 C    8.701000   15.112729   11.500000
 C   11.187000    2.158961   11.500000
 C   11.187000    6.476884   11.500000
 C   11.187000   10.794806   11.500000
 C   11.187000   15.112729   11.500000
 C    1.243000    0.719654   11.500000
 C    1.243000    5.037576   11.500000
 C    1.243000    9.355499   11.500000
 C    1.243000   13.673422   11.500000
 C    3.729000    0.719654   11.500000
 C    3.729000    5.037576   11.500000
 C    3.729000    9.355499   11.500000
 C    3.729000   13.673422   11.500000
 C    6.215000    0.719654   11.500000
 C    6.215000    5.037576   11.500000
 C    6.215000    9.355499   11.500000
 C    6.215000   13.673422   11.500000
 C    8.701000    0.719654   11.500000
 C    8.701000    5.037576   11.500000
 C    8.701000    9.355499   11.500000
 C    8.701000   13.673422   11.500000
 C   11.187000    0.719654   11.500000
 C   11.187000    5.037576   11.500000
 C   11.187000    9.355499   11.500000
 C   11.187000   13.673422   11.500000
K_POINTS {automatic}
3 3 1 0 0 0
