 &control
    calculation = 'scf'
    restart_mode='from_scratch',
    prefix='graphene',
    pseudo_dir = './'
    outdir = './'
 /
 &system    
   !  ibrav=  4, 
   !  celldm(1)= 4.641, 
   !  celldm(3)= 3.0, 
    ibrav= 0,
    nat=  4, 
    ntyp= 1,
    occupations = 'smearing',
    smearing = 'gaussian',
    degauss = 0.01,
    ecutwfc = 60.0,
    ecutrho = 600.0,
 /
 &electrons
    mixing_mode = 'plain'
    mixing_beta = 0.7 
    conv_thr =  1.0d-8
 /

ATOMIC_SPECIES
  C  12.011  C.pbe-n-kjpaw_psl.1.0.0.UPF

CELL_PARAMETERS angstrom
    2.4600000000    0.0000000000    0.0000000000
    0.0000000000    4.260844987     0.0000000000
    0.0000000000    0.0000000000   20.0000000000

ATOMIC_POSITIONS angstrom
  C      0.00  0.000000000   8.0
  C      0.00  2.840563324   8.0
  C      1.23  2.130422463   8.0
  C      1.23  0.7101408311  8.0
K_POINTS {automatic}
  12 12 12 0 0 0
