&control
    calculation = 'relax',
    restart_mode = 'from_scratch',
    pseudo_dir = './',
    outdir = './',
    verbosity = 'high',
/
&system
   ibrav = 0,
   nat = 140,
   ntyp = 3,
   occupations = 'smearing',
   smearing = 'gaussian',
   degauss = 0.001,
   ecutwfc = 60.0,
   ecutrho = 500.0,
   vdw_corr = 'DFT-D3',
/
&electrons
   mixing_beta = 0.9,
   mixing_mode = 'local-TF'
   conv_thr = 1.0d-9,
   electron_maxstep = 80,
/
ATOMIC_SPECIES
    C      12.0107  C.pbe-n-kjpaw_psl.1.0.0.UPF
    Te     127.6    Te.pbe-n-kjpaw_psl.1.0.0.UPF
    W      183.84   W.pbe-spn-kjpaw_psl.1.0.0.UPF
CELL_PARAMETERS angstrom
     12.32350   0.000000   0.000000
     0.000000   17.07590   0.000000
     0.000000   0.000000   70.00000
ATOMIC_POSITIONS {angstrom}
C             4.9296682000        8.5381119900       29.7272735231    
C             4.9295340800       15.6528075400       29.7275057913    
C            11.0914778700        4.9804136700       29.7275084887    
C             9.8585497000        8.5382159700       29.7276364148    
C             3.6967366600        4.9803297700       29.7277896415    
C             9.8586785100       15.6526974100       29.7279326111    
C            11.0912300600       14.9415952400       29.7280316403    
C            11.0915839300        2.1346201700       29.7281117665    
C             3.6969900800       14.9417032800       29.7284359807    
C             3.6966435700        2.1346523400       29.7284855047    
C             4.9298757300       11.3838895700       29.7286721804    
C             9.8583729100       11.3838874400       29.7291781877    
C            11.0911484200        9.2493695000       29.7297471424    
C             3.6971097400        9.2492769000       29.7302536657    
C             4.9293769900        4.2691368300       29.7308068968    
C             4.9298962000       12.8070480100       29.7308111399    
C             9.8588917700        4.2692053900       29.7314326443    
C             9.8583758400       12.8070091400       29.7314153157    
C            11.0916321000        0.7114598800       29.7322410774    
C             4.9293980900        2.8459290300       29.7327513850    
C             3.6966518100        0.7115216700       29.7328215574    
C             9.8588974900        2.8459202600       29.7334432584    
C            11.0911907800       10.6725725100       29.7335936520    
C             3.6971253600       10.6725502300       29.7342429529    
C            11.0915554400        6.4035852700       29.7347489349    
C            11.0912982300       13.5183989700       29.7349803090    
C             3.6967590400        6.4034946700       29.7354001608    
C             4.9297466500        7.1149363800       29.7353886192    
C             4.9296107800        0.0001007200       29.7354155684    
C             3.6970219900       13.5184523600       29.7356883188    
C             9.8585736100        7.1150266300       29.7361415091    
C             9.8587079500        0.0000317000       29.7361987436    
C             0.0001616200        2.8461573400       29.7376564743    
C             0.0001566100        4.2690158700       29.7380229115    
C             2.4643716400        2.8460154200       29.7380628432    
C             6.1619182700       10.6723045100       29.7381240826    
C             2.4643717700        4.2691430900       29.7382830146    
C             8.6261295600       10.6724459700       29.7386675000    
C             6.1619109900        9.2494366600       29.7386928584    
C             8.6261256300        9.2493255700       29.7389676744    
C             6.1619154900       13.5186931200       29.7408549848    
C             6.1618935000       14.9416107600       29.7412585655    
C             8.6261365200       14.9416813000       29.7414641997    
C             8.6261411800       13.5185868200       29.7415139394    
C             0.0001590100       -0.0001945500       29.7429765456    
C             0.0001326500       15.6527480000       29.7430767371    
C             2.4644009900       15.6526994500       29.7432185662    
C             2.4644040100       -0.0001129500       29.7436250064    
C             7.3940238300       11.3842654400       29.7454419967    
C             1.2322808900        2.1342350400       29.7456803337    
C             7.3940019200       12.8067308700       29.7468882940    
C             0.0001089300        8.5382688400       29.7471327506    
C             2.4644470600        8.5382647100       29.7472954194    
C             1.2322986800        4.9808102600       29.7474150175    
C             0.0001375300        7.1152269100       29.7476232536    
C             2.4644448500        7.1151916900       29.7483000659    
C             1.2322451700        0.7117324600       29.7485115538    
C             7.3940580900        8.5377239600       29.7485296547    
C             6.1618415700        4.9802385800       29.7489843735    
C             8.6262175500        4.9802604400       29.7492014267    
C             6.1618712100        6.4033216600       29.7495518080    
C             8.6262144600        6.4033322400       29.7502444529    
C             7.3940540500       15.6531406000       29.7510629933    
C             6.1618256200        2.1347513300       29.7515680975    
C             8.6262513000        2.1347063400       29.7518675543    
C             6.1618421900        0.7115993500       29.7519519133    
C             0.0000781000       11.3838146700       29.7522906540    
C             0.0000860000       12.8069815700       29.7524946753    
C             8.6262395200        0.7116350400       29.7525380951    
C             2.4645147200       11.3838631700       29.7526130219    
C             1.2323005800       14.9413165200       29.7524943708    
C             1.2322321500        6.4034328800       29.7525462607    
C             2.4645056200       12.8069333200       29.7529698309    
C             7.3939857600        7.1150256200       29.7543248525    
C             1.2322928100        9.2495329500       29.7554008011    
C             7.3940307700        4.2690228700       29.7566162905    
C             7.3939887000        0.0000984000       29.7568067856    
C             1.2322442700       13.5183846200       29.7575917902    
C             7.3940149400        2.8459652200       29.7580335207    
C             1.2322630200       10.6725635200       29.7582192002    
Te           10.4883680400       11.9546580400       33.2663281100    
Te            4.3269165900        1.7057767200       33.2667814800    
Te            4.3261968000        5.1251506300       33.2674942600    
Te           10.4876005700        8.5351795100       33.2675660100    
Te            4.3179842000       11.9540228400       33.2675955500    
Te           10.4805109300        1.7067079800       33.2678528400    
Te            4.3206161700        8.5376685200       33.2683167200    
Te           10.4814722200        5.1232149200       33.2685015000    
Te           10.4862298300       15.3703150900       33.2688513400    
Te            4.3231040200       15.3677891100       33.2691020400    
Te            1.2865912100        3.4154666300       33.8530643600    
Te            7.4480260100       10.2453202400       33.8533574500    
Te            7.4486623300       13.6612766900       33.8542696700    
Te            1.2873846300       -0.0000192000       33.8549021700    
Te            1.2866236000        6.8302034000       33.8565175300    
Te            7.4483374000        6.8306907800       33.8568266300    
Te            7.4487673900       -0.0003854700       33.8569027400    
Te            7.4476112100        3.4155203100       33.8570993800    
Te            1.2864039500       13.6610675800       33.8573349800    
Te            1.2855123600       10.2454319700       33.8574821000    
W             9.8524586900       10.2454122700       35.3088472200    
W             3.6909631100        3.4148828200       35.3088624100    
W             9.8523882100       13.6613300400       35.3107442700    
W             3.6907817300        0.0001331500       35.3117976800    
W             9.8513199700        3.4147990800       35.3119034600    
W             3.6891677300       10.2459196700       35.3119274900    
W             3.6897920000        6.8306451200       35.3125660400    
W             3.6897799500       13.6605779100       35.3128031400    
W             9.8513663900        6.8301820500       35.3129756100    
W             9.8519465800        0.0004668500       35.3132410500    
W             5.9248578600       11.9534591200       35.5095030700    
W            12.0868593900        1.7075056900       35.5103606400    
W            12.0864507900        5.1219669800       35.5109819400    
W             5.9245070000        8.5385582000       35.5111616500    
W            12.0864956900       11.9540901200       35.5127477900    
W             5.9250689900       15.3681975900       35.5128045000    
W            12.0864394700        8.5370404400       35.5128791000    
W             5.9248420600        5.1231791600       35.5129422400    
W             5.9251787600        1.7065789100       35.5130365200    
W            12.0869528800       15.3699220600       35.5131587200    
Te            8.3276515000       11.9530827500       36.9556178300    
Te            2.1661069300        1.7081817900       36.9563488700    
Te            2.1657905600        5.1216386000       36.9567858800    
Te            8.3272967100        8.5390556400       36.9573781700    
Te            8.3279011400       15.3680182100       36.9582466000    
Te            2.1662622800       15.3688550300       36.9586252500    
Te            8.3274110800        5.1224999200       36.9593242700    
Te            2.1654718800        8.5380154300       36.9594740400    
Te            8.3276708800        1.7077156600       36.9595471600    
Te            2.1654868800       11.9533784000       36.9596830700    
Te            5.2921068800       10.2460494300       37.5636002400    
Te           11.4520077200       10.2454887400       37.5640166100    
Te           11.4536385400        3.4151538500       37.5642047300    
Te            5.2900721700        3.4152782600       37.5642747500    
Te            5.2924469800       13.6594548400       37.5646354100    
Te            5.2919937900        6.8313149100       37.5648987600    
Te           11.4524898300       13.6614646100       37.5650262200    
Te           11.4538551900        6.8294887600       37.5650691500    
Te           11.4541118300        0.0013979300       37.5655328000    
Te            5.2912149800       -0.0006590900       37.5657115800    
K_POINTS {automatic}
3 3 1 0 0 0
