&BANDS
  prefix='WTe2',
  outdir='./',
  filband='WTe2.dat'
/
